70
1 0 1
2 1 1
4 2 1
4 3 1
5 2 1
5 3 1
5 4 1
6 0 1
6 3 1
7 0 1
7 3 1
7 4 1
7 5 1
7 6 1
8 1 1
8 4 1
8 5 1
8 7 1
9 1 1
9 2 1
9 3 1
9 4 1
9 5 1
10 0 1
10 3 1
10 6 1
10 7 1
10 9 1
11 0 1
11 1 1
11 3 1
11 4 1
11 5 1
11 6 1
11 7 1
11 8 1
11 10 1
12 0 1
12 2 1
12 5 1
12 6 1
12 8 1
12 9 1
12 10 1
13 0 1
13 1 1
13 7 1
13 11 1
14 3 1
14 4 1
14 7 1
14 8 1
14 9 1
14 10 1
15 8 1
15 10 1
15 11 1
15 13 1
15 14 1
16 4 1
16 5 1
16 7 1
16 9 1
16 10 1
16 12 1
16 14 1
17 0 1
17 1 1
17 2 1
17 3 1
17 4 1
17 5 1
17 6 1
17 7 1
17 9 1
17 13 1
17 15 1
18 1 1
18 7 1
18 8 1
18 9 1
18 12 1
18 13 1
19 0 1
19 4 1
19 9 1
19 11 1
19 12 1
19 16 1
19 18 1
20 1 1
20 2 1
20 3 1
20 5 1
20 6 1
20 7 1
20 12 1
20 16 1
20 19 1
21 1 1
21 2 1
21 3 1
21 4 1
21 9 1
21 10 1
21 11 1
21 13 1
21 14 1
21 15 1
21 17 1
21 18 1
21 20 1
22 1 1
22 2 1
22 3 1
22 4 1
22 5 1
22 7 1
22 8 1
22 11 1
22 12 1
22 15 1
22 20 1
23 0 1
23 8 1
23 9 1
23 10 1
23 11 1
23 14 1
23 15 1
23 19 1
23 21 1
24 0 1
24 2 1
24 4 1
24 9 1
24 10 1
24 11 1
24 16 1
24 17 1
24 20 1
24 21 1
25 2 1
25 6 1
25 10 1
25 11 1
25 12 1
25 14 1
25 16 1
25 18 1
25 19 1
25 20 1
25 21 1
25 22 1
26 1 1
26 3 1
26 6 1
26 7 1
26 10 1
26 12 1
26 13 1
26 14 1
26 19 1
26 23 1
27 1 1
27 4 1
27 5 1
27 6 1
27 12 1
27 14 1
27 20 1
27 23 1
27 25 1
27 26 1
28 0 1
28 3 1
28 5 1
28 8 1
28 9 1
28 10 1
28 11 1
28 12 1
28 13 1
28 14 1
28 18 1
28 22 1
28 23 1
28 25 1
28 27 1
29 0 1
29 2 1
29 3 1
29 4 1
29 5 1
29 6 1
29 7 1
29 8 1
29 9 1
29 11 1
29 12 1
29 14 1
29 15 1
29 16 1
29 17 1
29 19 1
29 21 1
29 22 1
29 23 1
29 24 1
29 25 1
29 26 1
29 28 1
30 0 1
30 2 1
30 4 1
30 5 1
30 6 1
30 9 1
30 10 1
30 11 1
30 14 1
30 15 1
30 16 1
30 18 1
30 24 1
30 28 1
30 29 1
31 3 1
31 8 1
31 9 1
31 13 1
31 16 1
31 17 1
31 19 1
31 21 1
31 24 1
31 25 1
31 30 1
32 0 1
32 2 1
32 4 1
32 6 1
32 8 1
32 9 1
32 11 1
32 17 1
32 18 1
32 19 1
32 21 1
32 24 1
32 25 1
32 27 1
32 28 1
32 31 1
33 0 1
33 3 1
33 4 1
33 5 1
33 7 1
33 10 1
33 13 1
33 17 1
33 19 1
33 22 1
33 23 1
33 25 1
33 27 1
33 28 1
33 31 1
33 32 1
34 0 1
34 1 1
34 2 1
34 3 1
34 10 1
34 11 1
34 14 1
34 18 1
34 20 1
34 21 1
34 24 1
34 26 1
34 27 1
34 30 1
34 31 1
34 33 1
35 0 1
35 2 1
35 6 1
35 8 1
35 9 1
35 10 1
35 11 1
35 12 1
35 13 1
35 14 1
35 16 1
35 17 1
35 19 1
35 23 1
35 24 1
35 25 1
35 28 1
35 32 1
35 33 1
35 34 1
36 0 1
36 4 1
36 5 1
36 7 1
36 10 1
36 12 1
36 13 1
36 14 1
36 16 1
36 18 1
36 20 1
36 23 1
36 26 1
36 29 1
36 30 1
36 32 1
36 34 1
36 35 1
37 5 1
37 6 1
37 7 1
37 8 1
37 9 1
37 10 1
37 11 1
37 12 1
37 14 1
37 16 1
37 17 1
37 18 1
37 20 1
37 21 1
37 23 1
37 24 1
37 26 1
37 27 1
37 30 1
37 32 1
37 34 1
37 36 1
38 0 1
38 2 1
38 3 1
38 4 1
38 5 1
38 9 1
38 11 1
38 12 1
38 13 1
38 15 1
38 17 1
38 19 1
38 20 1
38 23 1
38 24 1
38 25 1
38 26 1
38 27 1
38 30 1
38 31 1
38 32 1
38 33 1
38 36 1
38 37 1
39 0 1
39 2 1
39 3 1
39 4 1
39 8 1
39 9 1
39 10 1
39 14 1
39 20 1
39 21 1
39 22 1
39 23 1
39 33 1
39 34 1
39 35 1
39 36 1
39 38 1
40 0 1
40 1 1
40 3 1
40 4 1
40 8 1
40 9 1
40 11 1
40 13 1
40 14 1
40 16 1
40 18 1
40 19 1
40 23 1
40 24 1
40 25 1
40 27 1
40 28 1
40 29 1
40 30 1
40 32 1
40 34 1
40 35 1
40 38 1
41 2 1
41 5 1
41 8 1
41 9 1
41 10 1
41 12 1
41 14 1
41 17 1
41 18 1
41 20 1
41 21 1
41 23 1
41 26 1
41 28 1
41 30 1
41 31 1
41 32 1
41 37 1
41 39 1
42 0 1
42 1 1
42 3 1
42 4 1
42 5 1
42 6 1
42 19 1
42 21 1
42 23 1
42 24 1
42 25 1
42 26 1
42 27 1
42 28 1
42 32 1
42 34 1
42 36 1
42 39 1
42 40 1
43 1 1
43 3 1
43 8 1
43 9 1
43 10 1
43 11 1
43 12 1
43 15 1
43 17 1
43 18 1
43 20 1
43 23 1
43 24 1
43 25 1
43 27 1
43 29 1
43 30 1
43 32 1
43 34 1
43 35 1
43 36 1
43 38 1
43 39 1
43 42 1
44 0 1
44 1 1
44 2 1
44 3 1
44 5 1
44 9 1
44 10 1
44 11 1
44 13 1
44 14 1
44 19 1
44 21 1
44 22 1
44 24 1
44 30 1
44 32 1
44 34 1
44 35 1
44 36 1
44 37 1
44 39 1
44 40 1
44 42 1
44 43 1
45 1 1
45 2 1
45 6 1
45 8 1
45 9 1
45 10 1
45 11 1
45 12 1
45 13 1
45 15 1
45 16 1
45 18 1
45 21 1
45 22 1
45 23 1
45 27 1
45 28 1
45 29 1
45 30 1
45 31 1
45 33 1
45 34 1
45 38 1
45 41 1
46 1 1
46 7 1
46 8 1
46 13 1
46 16 1
46 17 1
46 19 1
46 20 1
46 22 1
46 23 1
46 24 1
46 28 1
46 29 1
46 31 1
46 34 1
46 35 1
46 37 1
46 38 1
46 41 1
46 42 1
46 44 1
46 45 1
47 0 1
47 1 1
47 2 1
47 5 1
47 6 1
47 8 1
47 9 1
47 10 1
47 12 1
47 17 1
47 18 1
47 20 1
47 24 1
47 25 1
47 26 1
47 28 1
47 33 1
47 38 1
47 40 1
47 42 1
47 45 1
47 46 1
48 0 1
48 1 1
48 2 1
48 3 1
48 5 1
48 7 1
48 11 1
48 12 1
48 16 1
48 17 1
48 20 1
48 22 1
48 25 1
48 26 1
48 28 1
48 29 1
48 30 1
48 31 1
48 32 1
48 33 1
48 34 1
48 35 1
48 36 1
48 37 1
48 38 1
48 39 1
48 40 1
48 41 1
48 47 1
49 1 1
49 2 1
49 3 1
49 4 1
49 7 1
49 8 1
49 12 1
49 13 1
49 15 1
49 18 1
49 20 1
49 21 1
49 22 1
49 23 1
49 27 1
49 28 1
49 29 1
49 30 1
49 34 1
49 38 1
49 41 1
50 2 1
50 3 1
50 5 1
50 6 1
50 7 1
50 9 1
50 12 1
50 14 1
50 16 1
50 19 1
50 20 1
50 21 1
50 24 1
50 28 1
50 30 1
50 32 1
50 33 1
50 35 1
50 40 1
50 41 1
50 42 1
50 45 1
50 46 1
50 47 1
50 48 1
51 1 1
51 4 1
51 6 1
51 7 1
51 13 1
51 14 1
51 20 1
51 21 1
51 23 1
51 25 1
51 28 1
51 29 1
51 31 1
51 33 1
51 42 1
51 43 1
51 45 1
51 46 1
51 47 1
52 0 1
52 1 1
52 2 1
52 3 1
52 5 1
52 6 1
52 8 1
52 9 1
52 10 1
52 18 1
52 19 1
52 21 1
52 22 1
52 24 1
52 27 1
52 28 1
52 29 1
52 30 1
52 31 1
52 34 1
52 36 1
52 38 1
52 39 1
52 41 1
52 43 1
52 46 1
52 48 1
52 50 1
52 51 1
53 0 1
53 1 1
53 2 1
53 7 1
53 8 1
53 9 1
53 10 1
53 11 1
53 12 1
53 13 1
53 18 1
53 19 1
53 22 1
53 25 1
53 26 1
53 27 1
53 29 1
53 30 1
53 34 1
53 37 1
53 38 1
53 41 1
53 42 1
53 43 1
53 45 1
53 47 1
53 48 1
53 49 1
53 52 1
54 0 1
54 2 1
54 3 1
54 6 1
54 7 1
54 11 1
54 16 1
54 17 1
54 18 1
54 20 1
54 21 1
54 22 1
54 23 1
54 27 1
54 28 1
54 30 1
54 31 1
54 32 1
54 33 1
54 34 1
54 37 1
54 40 1
54 41 1
54 43 1
54 47 1
54 50 1
54 53 1
55 1 1
55 3 1
55 4 1
55 5 1
55 8 1
55 10 1
55 11 1
55 13 1
55 14 1
55 16 1
55 19 1
55 21 1
55 23 1
55 24 1
55 25 1
55 26 1
55 27 1
55 28 1
55 29 1
55 32 1
55 33 1
55 34 1
55 37 1
55 38 1
55 39 1
55 41 1
55 42 1
55 45 1
55 46 1
55 47 1
55 49 1
55 52 1
55 54 1
56 0 1
56 1 1
56 3 1
56 6 1
56 7 1
56 8 1
56 9 1
56 10 1
56 11 1
56 12 1
56 15 1
56 16 1
56 18 1
56 19 1
56 23 1
56 25 1
56 29 1
56 30 1
56 32 1
56 36 1
56 37 1
56 42 1
56 43 1
56 46 1
56 49 1
56 50 1
56 51 1
56 52 1
56 54 1
56 55 1
57 1 1
57 3 1
57 4 1
57 5 1
57 7 1
57 9 1
57 12 1
57 16 1
57 18 1
57 19 1
57 21 1
57 22 1
57 24 1
57 25 1
57 26 1
57 28 1
57 29 1
57 32 1
57 33 1
57 34 1
57 36 1
57 37 1
57 38 1
57 39 1
57 43 1
57 45 1
57 47 1
57 54 1
57 55 1
57 56 1
58 1 1
58 4 1
58 5 1
58 6 1
58 7 1
58 8 1
58 10 1
58 12 1
58 13 1
58 16 1
58 20 1
58 21 1
58 22 1
58 23 1
58 25 1
58 28 1
58 34 1
58 35 1
58 46 1
58 47 1
58 48 1
58 52 1
58 55 1
58 57 1
59 2 1
59 4 1
59 5 1
59 6 1
59 7 1
59 10 1
59 11 1
59 12 1
59 15 1
59 16 1
59 17 1
59 19 1
59 20 1
59 21 1
59 25 1
59 26 1
59 27 1
59 30 1
59 31 1
59 32 1
59 33 1
59 34 1
59 36 1
59 37 1
59 40 1
59 43 1
59 44 1
59 46 1
59 48 1
59 49 1
59 53 1
59 54 1
59 56 1
59 57 1
59 58 1
60 0 1
60 1 1
60 2 1
60 6 1
60 8 1
60 10 1
60 12 1
60 13 1
60 15 1
60 16 1
60 18 1
60 20 1
60 22 1
60 23 1
60 24 1
60 25 1
60 27 1
60 29 1
60 30 1
60 31 1
60 32 1
60 33 1
60 38 1
60 39 1
60 40 1
60 42 1
60 43 1
60 45 1
60 46 1
60 48 1
60 50 1
60 52 1
60 54 1
60 55 1
60 57 1
61 1 1
61 7 1
61 8 1
61 11 1
61 12 1
61 14 1
61 15 1
61 16 1
61 17 1
61 20 1
61 21 1
61 27 1
61 28 1
61 29 1
61 30 1
61 31 1
61 32 1
61 34 1
61 35 1
61 37 1
61 39 1
61 42 1
61 50 1
61 51 1
61 54 1
61 55 1
61 56 1
61 57 1
61 59 1
61 60 1
62 3 1
62 6 1
62 7 1
62 10 1
62 11 1
62 13 1
62 14 1
62 16 1
62 18 1
62 23 1
62 24 1
62 28 1
62 31 1
62 32 1
62 36 1
62 37 1
62 39 1
62 44 1
62 45 1
62 47 1
62 48 1
62 51 1
62 52 1
62 54 1
62 55 1
62 58 1
62 59 1
62 61 1
63 4 1
63 7 1
63 10 1
63 13 1
63 14 1
63 15 1
63 17 1
63 21 1
63 23 1
63 24 1
63 25 1
63 26 1
63 29 1
63 30 1
63 32 1
63 34 1
63 36 1
63 37 1
63 39 1
63 40 1
63 41 1
63 42 1
63 48 1
63 49 1
63 50 1
63 51 1
63 52 1
63 54 1
63 55 1
63 56 1
63 57 1
63 59 1
63 61 1
64 1 1
64 2 1
64 3 1
64 6 1
64 10 1
64 11 1
64 12 1
64 24 1
64 25 1
64 26 1
64 27 1
64 34 1
64 35 1
64 36 1
64 37 1
64 38 1
64 40 1
64 41 1
64 44 1
64 45 1
64 47 1
64 52 1
64 53 1
64 55 1
64 57 1
64 58 1
64 59 1
64 61 1
64 62 1
64 63 1
65 0 1
65 3 1
65 4 1
65 5 1
65 9 1
65 11 1
65 13 1
65 14 1
65 15 1
65 18 1
65 19 1
65 20 1
65 23 1
65 26 1
65 32 1
65 36 1
65 37 1
65 38 1
65 39 1
65 40 1
65 41 1
65 44 1
65 46 1
65 47 1
65 50 1
65 51 1
65 55 1
65 56 1
65 57 1
65 63 1
65 64 1
66 2 1
66 3 1
66 4 1
66 5 1
66 7 1
66 9 1
66 15 1
66 17 1
66 20 1
66 23 1
66 27 1
66 33 1
66 34 1
66 35 1
66 37 1
66 39 1
66 41 1
66 42 1
66 44 1
66 45 1
66 46 1
66 47 1
66 48 1
66 52 1
66 53 1
66 54 1
66 61 1
66 64 1
67 0 1
67 1 1
67 4 1
67 8 1
67 9 1
67 10 1
67 11 1
67 12 1
67 13 1
67 14 1
67 18 1
67 20 1
67 24 1
67 25 1
67 27 1
67 28 1
67 30 1
67 33 1
67 39 1
67 40 1
67 43 1
67 44 1
67 45 1
67 46 1
67 47 1
67 48 1
67 49 1
67 50 1
67 51 1
67 52 1
67 55 1
67 57 1
67 58 1
67 59 1
67 61 1
67 63 1
67 65 1
68 0 1
68 2 1
68 3 1
68 5 1
68 10 1
68 11 1
68 12 1
68 13 1
68 14 1
68 17 1
68 18 1
68 20 1
68 24 1
68 25 1
68 26 1
68 27 1
68 30 1
68 31 1
68 32 1
68 33 1
68 34 1
68 36 1
68 37 1
68 38 1
68 40 1
68 44 1
68 45 1
68 46 1
68 48 1
68 49 1
68 52 1
68 53 1
68 55 1
68 58 1
68 59 1
68 63 1
68 65 1
69 1 1
69 2 1
69 4 1
69 5 1
69 6 1
69 7 1
69 9 1
69 10 1
69 11 1
69 13 1
69 14 1
69 16 1
69 19 1
69 21 1
69 22 1
69 23 1
69 24 1
69 25 1
69 28 1
69 29 1
69 30 1
69 37 1
69 40 1
69 41 1
69 42 1
69 45 1
69 46 1
69 48 1
69 53 1
69 56 1
69 57 1
69 60 1
69 61 1
69 63 1
69 67 1
